(set-info :smt-lib-version 2.6)
(set-logic QF_LIA)
(set-info :source |
show equivalence of the following terms:
((64 * v6 + (1 * v0 + 2 * v1)) + ((4 * v2 + 8 * v3) + (16 * v4 + 32 * v5)))

v0 + 2 * (v1 + 2 * (v2 + 2 * (v3 + 2 * (v4 + 2 * (v5 + 2 * (v6))))))

in arithmetic modulo 2exp12
STATUS: unsat

generated by: Alberto Griggio <alberto.griggio@disi.unitn.it>
|)
(set-info :category "crafted")
(set-info :status unsat)
(declare-fun v0 () Int)
(declare-fun v1 () Int)
(declare-fun v2 () Int)
(declare-fun v3 () Int)
(declare-fun v4 () Int)
(declare-fun v5 () Int)
(declare-fun v6 () Int)
(declare-fun s_0 () Int)
(declare-fun o_0 () Int)
(declare-fun s_1 () Int)
(declare-fun s_2 () Int)
(declare-fun o_1 () Int)
(declare-fun s_3 () Int)
(declare-fun s_4 () Int)
(declare-fun o_2 () Int)
(declare-fun s_5 () Int)
(declare-fun o_3 () Int)
(declare-fun o_4 () Int)
(declare-fun o_5 () Int)
(declare-fun s_6 () Int)
(declare-fun o_6 () Int)
(declare-fun s_7 () Int)
(declare-fun o_7 () Int)
(declare-fun s_8 () Int)
(declare-fun o_8 () Int)
(declare-fun s_9 () Int)
(declare-fun o_9 () Int)
(declare-fun s_10 () Int)
(declare-fun o_10 () Int)
(declare-fun s_11 () Int)
(declare-fun o_11 () Int)
(assert (let ((?v_22 (* v6 2))) (let ((?v_23 (- ?v_22 (* s_6 4096)))) (let ((?v_20 (+ ?v_23 v5))) (let ((?v_21 (- ?v_20 (* o_6 4096))) (?v_34 (* v5 32))) (let ((?v_35 (- ?v_34 (* s_4 4096))) (?v_36 (* v4 16))) (let ((?v_37 (- ?v_36 (* s_3 4096)))) (let ((?v_32 (+ ?v_35 ?v_37))) (let ((?v_33 (- ?v_32 (* o_2 4096))) (?v_40 (* v3 8))) (let ((?v_41 (- ?v_40 (* s_2 4096))) (?v_42 (* v2 4))) (let ((?v_43 (- ?v_42 (* s_1 4096)))) (let ((?v_38 (+ ?v_41 ?v_43))) (let ((?v_39 (- ?v_38 (* o_1 4096)))) (let ((?v_26 (+ ?v_33 ?v_39))) (let ((?v_27 (- ?v_26 (* o_4 4096))) (?v_30 (* v6 64))) (let ((?v_31 (- ?v_30 (* s_5 4096))) (?v_46 (* v1 2))) (let ((?v_47 (- ?v_46 (* s_0 4096)))) (let ((?v_44 (+ ?v_47 v0))) (let ((?v_45 (- ?v_44 (* o_0 4096)))) (let ((?v_28 (+ ?v_31 ?v_45))) (let ((?v_29 (- ?v_28 (* o_3 4096)))) (let ((?v_24 (+ ?v_27 ?v_29))) (let ((?v_25 (- ?v_24 (* o_5 4096))) (?v_18 (- (+ (- (* 4 v6) (* 8192 s_6)) (* 2 v5)) (* 8192 o_6)))) (let ((?v_19 (- ?v_18 (* s_7 4096)))) (let ((?v_16 (+ ?v_19 v4))) (let ((?v_17 (- ?v_16 (* o_7 4096))) (?v_14 (- (+ (- (- (+ (- (* 8 v6) (* 16384 s_6)) (* 4 v5)) (* 16384 o_6)) (* 8192 s_7)) (* 2 v4)) (* 8192 o_7)))) (let ((?v_15 (- ?v_14 (* s_8 4096)))) (let ((?v_12 (+ ?v_15 v3))) (let ((?v_13 (- ?v_12 (* o_8 4096))) (?v_10 (- (+ (- (- (+ (- (- (+ (- (* 16 v6) (* 32768 s_6)) (* 8 v5)) (* 32768 o_6)) (* 16384 s_7)) (* 4 v4)) (* 16384 o_7)) (* 8192 s_8)) (* 2 v3)) (* 8192 o_8)))) (let ((?v_11 (- ?v_10 (* s_9 4096)))) (let ((?v_8 (+ ?v_11 v2))) (let ((?v_9 (- ?v_8 (* o_9 4096))) (?v_6 (- (+ (- (- (+ (- (- (+ (- (- (+ (- (* 32 v6) (* 65536 s_6)) (* 16 v5)) (* 65536 o_6)) (* 32768 s_7)) (* 8 v4)) (* 32768 o_7)) (* 16384 s_8)) (* 4 v3)) (* 16384 o_8)) (* 8192 s_9)) (* 2 v2)) (* 8192 o_9)))) (let ((?v_7 (- ?v_6 (* s_10 4096)))) (let ((?v_4 (+ ?v_7 v1))) (let ((?v_5 (- ?v_4 (* o_10 4096))) (?v_2 (- (+ (- (- (+ (- (- (+ (- (- (+ (- (- (+ (- (* 64 v6) (* 131072 s_6)) (* 32 v5)) (* 131072 o_6)) (* 65536 s_7)) (* 16 v4)) (* 65536 o_7)) (* 32768 s_8)) (* 8 v3)) (* 32768 o_8)) (* 16384 s_9)) (* 4 v2)) (* 16384 o_9)) (* 8192 s_10)) (* 2 v1)) (* 8192 o_10)))) (let ((?v_3 (- ?v_2 (* s_11 4096)))) (let ((?v_0 (+ ?v_3 v0))) (let ((?v_1 (- ?v_0 (* o_11 4096)))) (and (not (= ?v_1 ?v_25)) (and (= (> ?v_0 4096) (= o_11 1)) (and (and (< ?v_1 4096) (<= 0 ?v_1)) (and (and (<= o_11 1) (<= 0 o_11)) (and (= (> ?v_2 4096) (>= s_11 1)) (and (and (< ?v_3 4096) (<= 0 ?v_3)) (and (and (< s_11 2) (<= 0 s_11)) (and (= (> ?v_4 4096) (= o_10 1)) (and (and (< ?v_5 4096) (<= 0 ?v_5)) (and (and (<= o_10 1) (<= 0 o_10)) (and (= (> ?v_6 4096) (>= s_10 1)) (and (and (< ?v_7 4096) (<= 0 ?v_7)) (and (and (< s_10 2) (<= 0 s_10)) (and (= (> ?v_8 4096) (= o_9 1)) (and (and (< ?v_9 4096) (<= 0 ?v_9)) (and (and (<= o_9 1) (<= 0 o_9)) (and (= (> ?v_10 4096) (>= s_9 1)) (and (and (< ?v_11 4096) (<= 0 ?v_11)) (and (and (< s_9 2) (<= 0 s_9)) (and (= (> ?v_12 4096) (= o_8 1)) (and (and (< ?v_13 4096) (<= 0 ?v_13)) (and (and (<= o_8 1) (<= 0 o_8)) (and (= (> ?v_14 4096) (>= s_8 1)) (and (and (< ?v_15 4096) (<= 0 ?v_15)) (and (and (< s_8 2) (<= 0 s_8)) (and (= (> ?v_16 4096) (= o_7 1)) (and (and (< ?v_17 4096) (<= 0 ?v_17)) (and (and (<= o_7 1) (<= 0 o_7)) (and (= (> ?v_18 4096) (>= s_7 1)) (and (and (< ?v_19 4096) (<= 0 ?v_19)) (and (and (< s_7 2) (<= 0 s_7)) (and (= (> ?v_20 4096) (= o_6 1)) (and (and (< ?v_21 4096) (<= 0 ?v_21)) (and (and (<= o_6 1) (<= 0 o_6)) (and (= (> ?v_22 4096) (>= s_6 1)) (and (and (< ?v_23 4096) (<= 0 ?v_23)) (and (and (< s_6 2) (<= 0 s_6)) (and (= (> ?v_24 4096) (= o_5 1)) (and (and (< ?v_25 4096) (<= 0 ?v_25)) (and (and (<= o_5 1) (<= 0 o_5)) (and (= (> ?v_26 4096) (= o_4 1)) (and (and (< ?v_27 4096) (<= 0 ?v_27)) (and (and (<= o_4 1) (<= 0 o_4)) (and (= (> ?v_28 4096) (= o_3 1)) (and (and (< ?v_29 4096) (<= 0 ?v_29)) (and (and (<= o_3 1) (<= 0 o_3)) (and (= (> ?v_30 4096) (>= s_5 1)) (and (and (< ?v_31 4096) (<= 0 ?v_31)) (and (and (< s_5 64) (<= 0 s_5)) (and (= (> ?v_32 4096) (= o_2 1)) (and (and (< ?v_33 4096) (<= 0 ?v_33)) (and (and (<= o_2 1) (<= 0 o_2)) (and (= (> ?v_34 4096) (>= s_4 1)) (and (and (< ?v_35 4096) (<= 0 ?v_35)) (and (and (< s_4 32) (<= 0 s_4)) (and (= (> ?v_36 4096) (>= s_3 1)) (and (and (< ?v_37 4096) (<= 0 ?v_37)) (and (and (< s_3 16) (<= 0 s_3)) (and (= (> ?v_38 4096) (= o_1 1)) (and (and (< ?v_39 4096) (<= 0 ?v_39)) (and (and (<= o_1 1) (<= 0 o_1)) (and (= (> ?v_40 4096) (>= s_2 1)) (and (and (< ?v_41 4096) (<= 0 ?v_41)) (and (and (< s_2 8) (<= 0 s_2)) (and (= (> ?v_42 4096) (>= s_1 1)) (and (and (< ?v_43 4096) (<= 0 ?v_43)) (and (and (< s_1 4) (<= 0 s_1)) (and (= (> ?v_44 4096) (= o_0 1)) (and (and (< ?v_45 4096) (<= 0 ?v_45)) (and (and (<= o_0 1) (<= 0 o_0)) (and (= (> ?v_46 4096) (>= s_0 1)) (and (and (< ?v_47 4096) (<= 0 ?v_47)) (and (and (< s_0 2) (<= 0 s_0)) (and (and (< v6 4096) (>= v6 0)) (and (and (< v5 4096) (>= v5 0)) (and (and (< v4 4096) (>= v4 0)) (and (and (< v3 4096) (>= v3 0)) (and (and (< v2 4096) (>= v2 0)) (and (and (< v1 4096) (>= v1 0)) (and (< v0 4096) (>= v0 0)))))))))))))))))))))))))))))))))))))))))))))))))))))))))))))))))))))))))))))))))))))))))))))))))))))))))))))))))))))))
(check-sat)
(exit)
